(declare-const m1 map)
(declare-const m1_p set)
(declare-const m2 map)
(declare-const m2_p set)
(declare-const m3 map)
(declare-const m3_p set)
(assert (extends m1 m1_p m2 m2_p))
(assert (extends m2 m2_p m3 m3_p))
(assert (not (extends m1 m1_p m3 m3_p)))
